Route #1: 28 77 68 12 26 58 95 85 99 6 
Route #2: 53 40 73 74 22 87 92 59 
Route #3: 4 39 56 75 72 13 94 60 83 18 
Route #4: 91 16 86 17 8 82 48 7 88 1 50 79 76 
Route #5: 27 69 70 71 9 81 33 3 80 54 21 2 100 93 96 
Route #6: 89 5 84 45 46 47 36 49 64 63 10 62 52 
Route #7: 15 43 14 38 44 61 19 11 90 32 66 51 31 
Route #8: 30 20 65 35 34 78 29 24 55 25 67 23 41 57 42 37 98 97 
cost 1131.11
